10	5
0	2	2	1
1	2	3	4
2	1	4
3	1	6
4	2	8	10
5	2	7	9
6	0
7	1	11
8	1	11
9	1	11
10	1	11
11	0
0	0	0	0	0	0	0
1	2	3	5	2	4	5
2	3	4	1	3	5	3
3	4	4	2	4	5	4
4	10	5	2	3	4	5
5	10	5	3	4	1	5
6	4	4	3	3	2	5
7	7	4	1	4	4	1
8	4	3	3	5	5	3
9	4	4	4	4	1	2
10	3	5	2	2	3	1
11	0	0	0	0	0	0
8	6	7	7	8
